Route #1: 67 32 6 58 10 24 18 28 36 42
Route #2: 63 39 23 11 3 55 40 50
Route #3: 25 38 53 19
Route #4: 65 43 66 13 46 7
Route #5: 48 45 12 21 54 5 14 62 27
Route #6: 15 4 60 47 35 64 31
Route #7: 1 17 20 9 44 34 59 16 30
Route #8: 37 41 2 22 51 61 26
Route #9: 29 8 49 57 52 33 56
Cost 1279
Time 0.166191
